10969
1 0 1 1 0 1 0 0 0 1 0 0 0 1 1 0 0 0 1 1
5 3 9 0 2 3 14 0 9 3 14 19 13 3 0 0 18 2 14 0 19 3 14 0 18 5 0 0 18 9 0 0 18 13 14 0 18 19 0 0 19 14 5 3 18 14 3 3 19 13 13 9 18 13 9 9 3 14 18 2 2 13 18 2 3 13 19 5 3 13 19 9 2 3 9 13 3 3 9 18